\ENCODING=ISO-8859-1
\Problem name: ilog.cplex

Maximize
 obj: 981 x(0)#0 + 850 x(1)#1 + 949 x(2)#2 + 634 x(3)#3 + 846 x(4)#4
      + 780 x(5)#5 + 567 x(6)#6 + 586 x(7)#7 + 973 x(8)#8 + 660 x(9)#9
      + 831 x(10)#10 + 567 x(11)#11 + 433 x(12)#12 + 592 x(13)#13
      + 882 x(14)#14 + 732 x(15)#15 + 630 x(16)#16 + 472 x(17)#17
      + 671 x(18)#18 + 731 x(19)#19 + 910 x(20)#20 + 769 x(21)#21
      + 817 x(22)#22 + 465 x(23)#23 + 854 x(24)#24 + 858 x(25)#25
      + 838 x(26)#26 + 576 x(27)#27 + 642 x(28)#28 + 895 x(29)#29
      + 771 x(30)#30 + 947 x(31)#31 + 696 x(32)#32 + 511 x(33)#33
      + 681 x(34)#34 + 518 x(35)#35 + 776 x(36)#36 + 682 x(37)#37
      + 617 x(38)#38 + 1046 x(39)#39 + 842 x(40)#40 + 1013 x(41)#41
      + 435 x(42)#42 + 709 x(43)#43 + 578 x(44)#44 + 964 x(45)#45
      + 739 x(46)#46 + 821 x(47)#47 + 682 x(48)#48 + 625 x(49)#49
      + 680 x(50)#50 + 698 x(51)#51 + 866 x(52)#52 + 796 x(53)#53
      + 916 x(54)#54 + 571 x(55)#55 + 473 x(56)#56 + 468 x(57)#57
      + 639 x(58)#58 + 608 x(59)#59 + 934 x(60)#60 + 772 x(61)#61
      + 692 x(62)#62 + 653 x(63)#63 + 1010 x(64)#64 + 1069 x(65)#65
      + 585 x(66)#66 + 849 x(67)#67 + 903 x(68)#68 + 920 x(69)#69
      + 895 x(70)#70 + 835 x(71)#71 + 701 x(72)#72 + 1000 x(73)#73
      + 879 x(74)#74 + 1075 x(75)#75 + 527 x(76)#76 + 921 x(77)#77
      + 790 x(78)#78 + 869 x(79)#79 + 991 x(80)#80 + 524 x(81)#81
      + 441 x(82)#82 + 906 x(83)#83 + 756 x(84)#84 + 780 x(85)#85
      + 710 x(86)#86 + 840 x(87)#87 + 601 x(88)#88 + 781 x(89)#89
      + 792 x(90)#90 + 755 x(91)#91 + 690 x(92)#92 + 469 x(93)#93
      + 801 x(94)#94 + 653 x(95)#95 + 905 x(96)#96 + 928 x(97)#97
      + 620 x(98)#98 + 906 x(99)#99
Subject To
 c1:  831 x(0)#0 + 622 x(1)#1 + 275 x(2)#2 + 332 x(3)#3 + 220 x(4)#4
      + 590 x(5)#5 + 144 x(6)#6 + 735 x(7)#7 + 765 x(8)#8 + 978 x(9)#9
      + 131 x(10)#10 + 819 x(11)#11 + 254 x(12)#12 + 169 x(13)#13
      + 770 x(14)#14 + 258 x(15)#15 + 886 x(16)#16 + 12 x(17)#17 + 301 x(18)#18
      + 699 x(19)#19 + 293 x(20)#20 + 234 x(21)#21 + 267 x(22)#22 + 26 x(23)#23
      + 681 x(24)#24 + 370 x(25)#25 + 280 x(26)#26 + 434 x(27)#27
      + 165 x(28)#28 + 450 x(29)#29 + 601 x(30)#30 + 667 x(31)#31
      + 232 x(32)#32 + 851 x(33)#33 + 661 x(34)#34 + 532 x(35)#35
      + 369 x(36)#36 + 80 x(37)#37 + 915 x(38)#38 + 623 x(39)#39 + 436 x(40)#40
      + 922 x(41)#41 + 19 x(42)#42 + 895 x(43)#43 + 582 x(44)#44 + 838 x(45)#45
      + 558 x(46)#46 + 530 x(47)#47 + 272 x(48)#48 + 297 x(49)#49
      + 469 x(50)#50 + 702 x(51)#51 + 621 x(52)#52 + 24 x(53)#53 + 323 x(54)#54
      + 45 x(55)#55 + 58 x(56)#56 + 410 x(57)#57 + 49 x(58)#58 + 960 x(59)#59
      + 835 x(60)#60 + 962 x(61)#61 + 133 x(62)#62 + 357 x(63)#63
      + 840 x(64)#64 + 950 x(65)#65 + 393 x(66)#66 + 32 x(67)#67 + 337 x(68)#68
      + 793 x(69)#69 + 236 x(70)#70 + 891 x(71)#71 + 839 x(72)#72
      + 305 x(73)#73 + 924 x(74)#74 + 301 x(75)#75 + 206 x(76)#76
      + 399 x(77)#77 + 935 x(78)#78 + 699 x(79)#79 + 492 x(80)#80
      + 361 x(81)#81 + 100 x(82)#82 + 898 x(83)#83 + 755 x(84)#84
      + 474 x(85)#85 + 740 x(86)#86 + 136 x(87)#87 + 246 x(88)#88
      + 372 x(89)#89 + 647 x(90)#90 + 245 x(91)#91 + 76 x(92)#92 + 875 x(93)#93
      + 288 x(94)#94 + 356 x(95)#95 + 791 x(96)#96 + 257 x(97)#97
      + 616 x(98)#98 + 361 x(99)#99 <= 23993
 c2:  964 x(0)#0 + 953 x(1)#1 + 467 x(2)#2 + 338 x(3)#3 + 512 x(4)#4
      + 348 x(5)#5 + 189 x(6)#6 + 678 x(7)#7 + 351 x(8)#8 + 101 x(9)#9
      + 443 x(10)#10 + 583 x(11)#11 + 524 x(12)#12 + 125 x(13)#13
      + 545 x(14)#14 + 150 x(15)#15 + 343 x(16)#16 + 125 x(17)#17
      + 127 x(18)#18 + 778 x(19)#19 + 162 x(20)#20 + 376 x(21)#21
      + 242 x(22)#22 + 184 x(23)#23 + 842 x(24)#24 + 444 x(25)#25
      + 939 x(26)#26 + 618 x(27)#27 + 61 x(28)#28 + 508 x(29)#29 + 890 x(30)#30
      + 256 x(31)#31 + 8 x(32)#32 + 494 x(33)#33 + 624 x(34)#34 + 126 x(35)#35
      + 526 x(36)#36 + 909 x(37)#37 + 39 x(38)#38 + 946 x(39)#39 + 928 x(40)#40
      + 903 x(41)#41 + 587 x(42)#42 + 428 x(43)#43 + 111 x(44)#44
      + 444 x(45)#45 + 37 x(46)#46 + 604 x(47)#47 + 794 x(48)#48 + 843 x(49)#49
      + 515 x(50)#50 + 581 x(51)#51 + 799 x(52)#52 + 548 x(53)#53
      + 881 x(54)#54 + 419 x(55)#55 + 4 x(56)#56 + 941 x(57)#57 + 757 x(58)#58
      + 613 x(59)#59 + 467 x(60)#60 + 606 x(61)#61 + 118 x(62)#62
      + 963 x(63)#63 + 919 x(64)#64 + 907 x(65)#65 + 290 x(66)#66
      + 774 x(67)#67 + 793 x(68)#68 + 548 x(69)#69 + 114 x(70)#70
      + 234 x(71)#71 + 305 x(72)#72 + 390 x(73)#73 + 670 x(74)#74
      + 540 x(75)#75 + 69 x(76)#76 + 271 x(77)#77 + 455 x(78)#78 + 843 x(79)#79
      + 898 x(80)#80 + 508 x(81)#81 + 737 x(82)#82 + 208 x(83)#83
      + 222 x(84)#84 + 883 x(85)#85 + 493 x(86)#86 + 333 x(87)#87
      + 658 x(88)#88 + 655 x(89)#89 + 680 x(90)#90 + 247 x(91)#91
      + 824 x(92)#92 + 391 x(93)#93 + 621 x(94)#94 + 171 x(95)#95
      + 136 x(96)#96 + 997 x(97)#97 + 82 x(98)#98 + 394 x(99)#99 <= 24995
 c3:  529 x(0)#0 + 224 x(1)#1 + 397 x(2)#2 + 644 x(3)#3 + 538 x(4)#4
      + 857 x(5)#5 + 261 x(6)#6 + 117 x(7)#7 + 822 x(8)#8 + 797 x(9)#9
      + 25 x(10)#10 + 426 x(11)#11 + 905 x(12)#12 + 87 x(13)#13 + 889 x(14)#14
      + 987 x(15)#15 + 566 x(16)#16 + 306 x(17)#17 + 886 x(18)#18
      + 749 x(19)#19 + 820 x(20)#20 + 193 x(21)#21 + 370 x(22)#22
      + 478 x(23)#23 + 860 x(24)#24 + 336 x(25)#25 + 598 x(26)#26
      + 544 x(27)#27 + 483 x(28)#28 + 590 x(29)#29 + 808 x(30)#30
      + 689 x(31)#31 + 23 x(32)#32 + 65 x(33)#33 + 521 x(34)#34 + 489 x(35)#35
      + 603 x(36)#36 + 920 x(37)#37 + 656 x(38)#38 + 881 x(39)#39
      + 563 x(40)#40 + 310 x(41)#41 + 153 x(42)#42 + 123 x(43)#43 + 54 x(44)#44
      + 260 x(45)#45 + 562 x(46)#46 + 765 x(47)#47 + 39 x(48)#48 + 611 x(49)#49
      + 283 x(50)#50 + 469 x(51)#51 + 962 x(52)#52 + 716 x(53)#53
      + 291 x(54)#54 + 628 x(55)#55 + 71 x(56)#56 + 848 x(57)#57 + 363 x(58)#58
      + 26 x(59)#59 + 544 x(60)#60 + 294 x(61)#61 + 307 x(62)#62 + 261 x(63)#63
      + 401 x(64)#64 + 832 x(65)#65 + 230 x(66)#66 + 361 x(67)#67
      + 468 x(68)#68 + 516 x(69)#69 + 183 x(70)#70 + 750 x(71)#71
      + 858 x(72)#72 + 803 x(73)#73 + 823 x(74)#74 + 748 x(75)#75
      + 202 x(76)#76 + 332 x(77)#77 + 614 x(78)#78 + 56 x(79)#79 + 921 x(80)#80
      + 62 x(81)#81 + 717 x(82)#82 + 572 x(83)#83 + 245 x(84)#84 + 863 x(85)#85
      + 869 x(86)#86 + 375 x(87)#87 + 257 x(88)#88 + 735 x(89)#89
      + 106 x(90)#90 + 465 x(91)#91 + 55 x(92)#92 + 268 x(93)#93 + 220 x(94)#94
      + 228 x(95)#95 + 97 x(96)#96 + 988 x(97)#97 + 684 x(98)#98 + 756 x(99)#99
      <= 24551
 c4:  254 x(0)#0 + 828 x(1)#1 + 665 x(2)#2 + 933 x(3)#3 + 277 x(4)#4
      + 436 x(5)#5 + 973 x(6)#6 + 23 x(7)#7 + 963 x(8)#8 + 318 x(9)#9
      + 627 x(10)#10 + 194 x(11)#11 + 797 x(12)#12 + 322 x(13)#13
      + 940 x(14)#14 + 577 x(15)#15 + 51 x(16)#16 + 131 x(17)#17 + 558 x(18)#18
      + 760 x(19)#19 + 594 x(20)#20 + 975 x(21)#21 + 435 x(22)#22
      + 221 x(23)#23 + 441 x(24)#24 + 457 x(25)#25 + 379 x(26)#26
      + 144 x(27)#27 + 614 x(28)#28 + 166 x(29)#29 + 922 x(30)#30
      + 450 x(31)#31 + 72 x(32)#32 + 593 x(33)#33 + 423 x(34)#34 + 998 x(35)#35
      + 299 x(36)#36 + 767 x(37)#37 + 345 x(38)#38 + 410 x(39)#39
      + 643 x(40)#40 + 323 x(41)#41 + 753 x(42)#42 + 645 x(43)#43 + 89 x(44)#44
      + 455 x(45)#45 + 511 x(46)#46 + 445 x(47)#47 + 918 x(48)#48
      + 263 x(49)#49 + 79 x(50)#50 + 111 x(51)#51 + 27 x(52)#52 + 245 x(53)#53
      + 72 x(54)#54 + 398 x(55)#55 + 116 x(56)#56 + 355 x(57)#57 + 416 x(58)#58
      + 615 x(59)#59 + 296 x(60)#60 + 629 x(61)#61 + 328 x(62)#62
      + 427 x(63)#63 + 418 x(64)#64 + 98 x(65)#65 + 808 x(66)#66 + 642 x(67)#67
      + 637 x(68)#68 + 759 x(69)#69 + 868 x(70)#70 + 119 x(71)#71
      + 697 x(72)#72 + 234 x(73)#73 + 105 x(74)#74 + 695 x(75)#75
      + 295 x(76)#76 + 694 x(77)#77 + 944 x(78)#78 + 185 x(79)#79
      + 606 x(80)#80 + 555 x(81)#81 + 647 x(82)#82 + 956 x(83)#83
      + 339 x(84)#84 + 555 x(85)#85 + 615 x(86)#86 + 308 x(87)#87
      + 650 x(88)#88 + 477 x(89)#89 + 458 x(90)#90 + 379 x(91)#91
      + 256 x(92)#92 + 41 x(93)#93 + 704 x(94)#94 + 646 x(95)#95 + 548 x(96)#96
      + 880 x(97)#97 + 670 x(98)#98 + 383 x(99)#99 <= 24181
 c5:  377 x(0)#0 + 305 x(1)#1 + 581 x(2)#2 + 332 x(3)#3 + 573 x(4)#4
      + 187 x(5)#5 + 291 x(6)#6 + 993 x(7)#7 + 446 x(8)#8 + 206 x(9)#9
      + 324 x(10)#10 + 475 x(11)#11 + 329 x(12)#12 + 88 x(13)#13 + 511 x(14)#14
      + 111 x(15)#15 + 386 x(16)#16 + 152 x(17)#17 + 545 x(18)#18
      + 470 x(19)#19 + 834 x(20)#20 + 884 x(21)#21 + 129 x(22)#22
      + 994 x(23)#23 + 748 x(24)#24 + 307 x(25)#25 + 496 x(26)#26 + 45 x(27)#27
      + 103 x(28)#28 + 562 x(29)#29 + 119 x(30)#30 + 102 x(31)#31
      + 145 x(32)#32 + 471 x(33)#33 + 173 x(34)#34 + 442 x(35)#35
      + 639 x(36)#36 + 175 x(37)#37 + 487 x(38)#38 + 780 x(39)#39
      + 182 x(40)#40 + 24 x(41)#41 + 390 x(42)#42 + 508 x(43)#43 + 688 x(44)#44
      + 493 x(45)#45 + 879 x(46)#46 + 752 x(47)#47 + 864 x(48)#48
      + 917 x(49)#49 + 989 x(50)#50 + 918 x(51)#51 + 613 x(52)#52
      + 195 x(53)#53 + 855 x(54)#54 + 149 x(55)#55 + 262 x(56)#56
      + 427 x(57)#57 + 497 x(58)#58 + 535 x(59)#59 + 481 x(60)#60 + 17 x(61)#61
      + 763 x(62)#62 + 271 x(63)#63 + 171 x(64)#64 + 953 x(65)#65
      + 212 x(66)#66 + 585 x(67)#67 + 487 x(68)#68 + 438 x(69)#69 + 60 x(70)#70
      + 654 x(71)#71 + 215 x(72)#72 + 651 x(73)#73 + 292 x(74)#74
      + 684 x(75)#75 + 580 x(76)#76 + 419 x(77)#77 + 990 x(78)#78
      + 415 x(79)#79 + 6 x(80)#80 + 897 x(81)#81 + 188 x(82)#82 + 122 x(83)#83
      + 689 x(84)#84 + 271 x(85)#85 + 18 x(86)#86 + 124 x(87)#87 + 965 x(88)#88
      + 568 x(89)#89 + 915 x(90)#90 + 771 x(91)#91 + 236 x(92)#92
      + 204 x(93)#93 + 476 x(94)#94 + 258 x(95)#95 + 993 x(96)#96
      + 918 x(97)#97 + 609 x(98)#98 + 337 x(99)#99 <= 23179
 c6:  862 x(0)#0 + 231 x(1)#1 + 947 x(2)#2 + 344 x(3)#3 + 26 x(4)#4
      + 456 x(5)#5 + 759 x(6)#6 + 379 x(7)#7 + 748 x(8)#8 + 833 x(9)#9
      + 886 x(10)#10 + 228 x(11)#11 + 114 x(12)#12 + 309 x(13)#13
      + 798 x(14)#14 + 68 x(15)#15 + 152 x(16)#16 + 298 x(17)#17 + 267 x(18)#18
      + 23 x(19)#19 + 489 x(20)#20 + 370 x(21)#21 + 533 x(22)#22 + 619 x(23)#23
      + 607 x(24)#24 + 331 x(25)#25 + 392 x(26)#26 + 950 x(27)#27
      + 683 x(28)#28 + 862 x(29)#29 + 230 x(30)#30 + 322 x(31)#31
      + 731 x(32)#32 + 666 x(33)#33 + 44 x(34)#34 + 402 x(35)#35 + 238 x(36)#36
      + 278 x(37)#37 + 471 x(38)#38 + 945 x(39)#39 + 928 x(40)#40
      + 720 x(41)#41 + 29 x(42)#42 + 447 x(43)#43 + 102 x(44)#44 + 536 x(45)#45
      + 819 x(46)#46 + 946 x(47)#47 + 81 x(48)#48 + 12 x(49)#49 + 282 x(50)#50
      + 614 x(51)#51 + 843 x(52)#52 + 802 x(53)#53 + 856 x(54)#54
      + 685 x(55)#55 + 58 x(56)#56 + 159 x(57)#57 + 911 x(58)#58 + 437 x(59)#59
      + 687 x(60)#60 + 290 x(61)#61 + 744 x(62)#62 + 68 x(63)#63 + 749 x(64)#64
      + 336 x(65)#65 + 510 x(66)#66 + 204 x(67)#67 + 243 x(68)#68 + 53 x(69)#69
      + 915 x(70)#70 + 478 x(71)#71 + 544 x(72)#72 + 847 x(73)#73
      + 219 x(74)#74 + 384 x(75)#75 + 649 x(76)#76 + 595 x(77)#77
      + 666 x(78)#78 + 694 x(79)#79 + 708 x(80)#80 + 164 x(81)#81
      + 238 x(82)#82 + 953 x(83)#83 + 105 x(84)#84 + 303 x(85)#85
      + 195 x(86)#86 + 251 x(87)#87 + 741 x(88)#88 + 231 x(89)#89
      + 395 x(90)#90 + 326 x(91)#91 + 223 x(92)#92 + 801 x(93)#93
      + 778 x(94)#94 + 615 x(95)#95 + 31 x(96)#96 + 152 x(97)#97 + 539 x(98)#98
      + 790 x(99)#99 <= 23786
 c7:  273 x(0)#0 + 422 x(1)#1 + 996 x(2)#2 + 282 x(3)#3 + 477 x(4)#4
      + 303 x(5)#5 + 985 x(6)#6 + 246 x(7)#7 + 811 x(8)#8 + 973 x(9)#9
      + 868 x(10)#10 + 918 x(11)#11 + 257 x(12)#12 + 290 x(13)#13
      + 576 x(14)#14 + 224 x(15)#15 + 661 x(16)#16 + 482 x(17)#17 + 48 x(18)#18
      + 411 x(19)#19 + 497 x(20)#20 + 876 x(21)#21 + 770 x(22)#22
      + 352 x(23)#23 + 881 x(24)#24 + 932 x(25)#25 + 298 x(26)#26
      + 747 x(27)#27 + 374 x(28)#28 + 42 x(29)#29 + 584 x(30)#30 + 488 x(31)#31
      + 632 x(32)#32 + 192 x(33)#33 + 34 x(34)#34 + 637 x(35)#35 + 293 x(36)#36
      + 423 x(37)#37 + 815 x(38)#38 + 835 x(39)#39 + 180 x(40)#40
      + 790 x(41)#41 + 832 x(42)#42 + 276 x(43)#43 + 104 x(44)#44
      + 479 x(45)#45 + 463 x(46)#46 + 971 x(47)#47 + 198 x(48)#48
      + 578 x(49)#49 + 485 x(50)#50 + 398 x(51)#51 + 853 x(52)#52
      + 741 x(53)#53 + 461 x(54)#54 + 381 x(55)#55 + 23 x(56)#56 + 154 x(57)#57
      + 153 x(58)#58 + 919 x(59)#59 + 499 x(60)#60 + 487 x(61)#61 + 64 x(62)#62
      + 289 x(63)#63 + 929 x(64)#64 + 572 x(65)#65 + 692 x(66)#66
      + 334 x(67)#67 + 250 x(68)#68 + 631 x(69)#69 + 301 x(70)#70
      + 773 x(71)#71 + 653 x(72)#72 + 799 x(73)#73 + 616 x(74)#74
      + 862 x(75)#75 + 850 x(76)#76 + 370 x(77)#77 + 869 x(78)#78
      + 330 x(79)#79 + 780 x(80)#80 + 999 x(81)#81 + 531 x(82)#82
      + 492 x(83)#83 + 561 x(84)#84 + 491 x(85)#85 + 851 x(86)#86
      + 331 x(87)#87 + 616 x(88)#88 + 572 x(89)#89 + 839 x(90)#90
      + 101 x(91)#91 + 351 x(92)#92 + 287 x(93)#93 + 425 x(94)#94 + 11 x(95)#95
      + 610 x(96)#96 + 937 x(97)#97 + 515 x(98)#98 + 71 x(99)#99 <= 26093
 c8:  291 x(0)#0 + 832 x(1)#1 + 458 x(2)#2 + 814 x(3)#3 + 733 x(4)#4
      + 224 x(5)#5 + 154 x(6)#6 + 749 x(7)#7 + 782 x(8)#8 + 620 x(9)#9
      + 256 x(10)#10 + 29 x(11)#11 + 239 x(12)#12 + 858 x(13)#13 + 785 x(14)#14
      + 413 x(15)#15 + 525 x(16)#16 + 573 x(17)#17 + 893 x(18)#18 + 20 x(19)#19
      + 933 x(20)#20 + 457 x(21)#21 + 963 x(22)#22 + 4 x(23)#23 + 97 x(24)#24
      + 953 x(25)#25 + 916 x(26)#26 + 525 x(27)#27 + 197 x(28)#28 + 64 x(29)#29
      + 695 x(30)#30 + 591 x(31)#31 + 584 x(32)#32 + 17 x(33)#33 + 871 x(34)#34
      + 532 x(35)#35 + 228 x(36)#36 + 919 x(37)#37 + 262 x(38)#38
      + 753 x(39)#39 + 644 x(40)#40 + 668 x(41)#41 + 816 x(42)#42
      + 923 x(43)#43 + 247 x(44)#44 + 131 x(45)#45 + 264 x(46)#46
      + 626 x(47)#47 + 641 x(48)#48 + 219 x(49)#49 + 35 x(50)#50 + 86 x(51)#51
      + 316 x(52)#52 + 18 x(53)#53 + 318 x(54)#54 + 779 x(55)#55 + 521 x(56)#56
      + 621 x(57)#57 + 976 x(58)#58 + 902 x(59)#59 + 745 x(60)#60
      + 432 x(61)#61 + 303 x(62)#62 + 77 x(63)#63 + 218 x(64)#64 + 195 x(65)#65
      + 316 x(66)#66 + 169 x(67)#67 + 250 x(68)#68 + 911 x(69)#69
      + 870 x(70)#70 + 130 x(71)#71 + 332 x(72)#72 + 275 x(73)#73
      + 543 x(74)#74 + 462 x(75)#75 + 549 x(76)#76 + 728 x(77)#77
      + 864 x(78)#78 + 801 x(79)#79 + 725 x(80)#80 + 750 x(81)#81
      + 685 x(82)#82 + 531 x(83)#83 + 415 x(84)#84 + 93 x(85)#85 + 272 x(86)#86
      + 324 x(87)#87 + 167 x(88)#88 + 908 x(89)#89 + 78 x(90)#90 + 968 x(91)#91
      + 918 x(92)#92 + 154 x(93)#93 + 292 x(94)#94 + 691 x(95)#95
      + 967 x(96)#96 + 925 x(97)#97 + 904 x(98)#98 + 251 x(99)#99 <= 25374
 c9:  287 x(0)#0 + 389 x(1)#1 + 88 x(2)#2 + 416 x(3)#3 + 734 x(4)#4
      + 216 x(5)#5 + 387 x(6)#6 + 916 x(7)#7 + 192 x(8)#8 + 732 x(9)#9
      + 824 x(10)#10 + 587 x(11)#11 + 282 x(12)#12 + 198 x(13)#13
      + 818 x(14)#14 + 945 x(15)#15 + 485 x(16)#16 + 229 x(17)#17
      + 840 x(18)#18 + 509 x(19)#19 + 268 x(20)#20 + 749 x(21)#21
      + 726 x(22)#22 + 442 x(23)#23 + 685 x(24)#24 + 741 x(25)#25
      + 262 x(26)#26 + 103 x(27)#27 + 369 x(28)#28 + 784 x(29)#29
      + 940 x(30)#30 + 667 x(31)#31 + 827 x(32)#32 + 715 x(33)#33
      + 604 x(34)#34 + 819 x(35)#35 + 427 x(36)#36 + 51 x(37)#37 + 868 x(38)#38
      + 687 x(39)#39 + 64 x(40)#40 + 620 x(41)#41 + 569 x(42)#42 + 375 x(43)#43
      + 39 x(44)#44 + 682 x(45)#45 + 139 x(46)#46 + 281 x(47)#47 + 318 x(48)#48
      + 600 x(49)#49 + 687 x(50)#50 + 184 x(51)#51 + 975 x(52)#52 + 97 x(53)#53
      + 152 x(54)#54 + 171 x(55)#55 + 84 x(56)#56 + 409 x(57)#57 + 157 x(58)#58
      + 658 x(59)#59 + 807 x(60)#60 + 435 x(61)#61 + 760 x(62)#62
      + 665 x(63)#63 + 967 x(64)#64 + 649 x(65)#65 + 524 x(66)#66
      + 827 x(67)#67 + 906 x(68)#68 + 661 x(69)#69 + 468 x(70)#70
      + 533 x(71)#71 + 125 x(72)#72 + 810 x(73)#73 + 867 x(74)#74
      + 535 x(75)#75 + 876 x(76)#76 + 106 x(77)#77 + 847 x(78)#78
      + 851 x(79)#79 + 546 x(80)#80 + 318 x(81)#81 + 357 x(82)#82
      + 403 x(83)#83 + 895 x(84)#84 + 223 x(85)#85 + 851 x(86)#86
      + 828 x(87)#87 + 229 x(88)#88 + 7 x(89)#89 + 336 x(90)#90 + 981 x(91)#91
      + 425 x(92)#92 + 254 x(93)#93 + 732 x(94)#94 + 389 x(95)#95
      + 874 x(96)#96 + 118 x(97)#97 + 830 x(98)#98 + 599 x(99)#99 <= 26242
 c10: 891 x(0)#0 + 173 x(1)#1 + 697 x(2)#2 + 39 x(3)#3 + 639 x(4)#4
      + 118 x(5)#5 + 670 x(6)#6 + 642 x(7)#7 + 665 x(8)#8 + 926 x(9)#9
      + 944 x(10)#10 + 559 x(11)#11 + 105 x(12)#12 + 128 x(13)#13
      + 505 x(14)#14 + 503 x(15)#15 + 94 x(16)#16 + 647 x(17)#17 + 584 x(18)#18
      + 910 x(19)#19 + 303 x(20)#20 + 550 x(21)#21 + 40 x(22)#22 + 134 x(23)#23
      + 55 x(24)#24 + 474 x(25)#25 + 183 x(26)#26 + 503 x(27)#27 + 20 x(28)#28
      + 986 x(29)#29 + 387 x(30)#30 + 809 x(31)#31 + 22 x(32)#32 + 268 x(33)#33
      + 796 x(34)#34 + 150 x(35)#35 + 711 x(36)#36 + 527 x(37)#37
      + 505 x(38)#38 + 16 x(39)#39 + 431 x(40)#40 + 848 x(41)#41 + 156 x(42)#42
      + 901 x(43)#43 + 772 x(44)#44 + 709 x(45)#45 + 437 x(46)#46
      + 724 x(47)#47 + 556 x(48)#48 + 978 x(49)#49 + 607 x(50)#50
      + 807 x(51)#51 + 794 x(52)#52 + 759 x(53)#53 + 156 x(54)#54
      + 158 x(55)#55 + 218 x(56)#56 + 342 x(57)#57 + 473 x(58)#58
      + 335 x(59)#59 + 949 x(60)#60 + 750 x(61)#61 + 170 x(62)#62
      + 104 x(63)#63 + 163 x(64)#64 + 713 x(65)#65 + 804 x(66)#66
      + 936 x(67)#67 + 212 x(68)#68 + 421 x(69)#69 + 549 x(70)#70
      + 184 x(71)#71 + 188 x(72)#72 + 661 x(73)#73 + 939 x(74)#74
      + 733 x(75)#75 + 626 x(76)#76 + 677 x(77)#77 + 102 x(78)#78
      + 355 x(79)#79 + 487 x(80)#80 + 72 x(81)#81 + 207 x(82)#82 + 736 x(83)#83
      + 567 x(84)#84 + 217 x(85)#85 + 149 x(86)#86 + 605 x(87)#87
      + 353 x(88)#88 + 891 x(89)#89 + 764 x(90)#90 + 37 x(91)#91 + 45 x(92)#92
      + 841 x(93)#93 + 572 x(94)#94 + 339 x(95)#95 + 867 x(96)#96
      + 221 x(97)#97 + 490 x(98)#98 + 526 x(99)#99 <= 24131
Bounds
 0 <= x(0)#0 <= 1
 0 <= x(1)#1 <= 1
 0 <= x(2)#2 <= 1
 0 <= x(3)#3 <= 1
 0 <= x(4)#4 <= 1
 0 <= x(5)#5 <= 1
 0 <= x(6)#6 <= 1
 0 <= x(7)#7 <= 1
 0 <= x(8)#8 <= 1
 0 <= x(9)#9 <= 1
 0 <= x(10)#10 <= 1
 0 <= x(11)#11 <= 1
 0 <= x(12)#12 <= 1
 0 <= x(13)#13 <= 1
 0 <= x(14)#14 <= 1
 0 <= x(15)#15 <= 1
 0 <= x(16)#16 <= 1
 0 <= x(17)#17 <= 1
 0 <= x(18)#18 <= 1
 0 <= x(19)#19 <= 1
 0 <= x(20)#20 <= 1
 0 <= x(21)#21 <= 1
 0 <= x(22)#22 <= 1
 0 <= x(23)#23 <= 1
 0 <= x(24)#24 <= 1
 0 <= x(25)#25 <= 1
 0 <= x(26)#26 <= 1
 0 <= x(27)#27 <= 1
 0 <= x(28)#28 <= 1
 0 <= x(29)#29 <= 1
 0 <= x(30)#30 <= 1
 0 <= x(31)#31 <= 1
 0 <= x(32)#32 <= 1
 0 <= x(33)#33 <= 1
 0 <= x(34)#34 <= 1
 0 <= x(35)#35 <= 1
 0 <= x(36)#36 <= 1
 0 <= x(37)#37 <= 1
 0 <= x(38)#38 <= 1
 0 <= x(39)#39 <= 1
 0 <= x(40)#40 <= 1
 0 <= x(41)#41 <= 1
 0 <= x(42)#42 <= 1
 0 <= x(43)#43 <= 1
 0 <= x(44)#44 <= 1
 0 <= x(45)#45 <= 1
 0 <= x(46)#46 <= 1
 0 <= x(47)#47 <= 1
 0 <= x(48)#48 <= 1
 0 <= x(49)#49 <= 1
 0 <= x(50)#50 <= 1
 0 <= x(51)#51 <= 1
 0 <= x(52)#52 <= 1
 0 <= x(53)#53 <= 1
 0 <= x(54)#54 <= 1
 0 <= x(55)#55 <= 1
 0 <= x(56)#56 <= 1
 0 <= x(57)#57 <= 1
 0 <= x(58)#58 <= 1
 0 <= x(59)#59 <= 1
 0 <= x(60)#60 <= 1
 0 <= x(61)#61 <= 1
 0 <= x(62)#62 <= 1
 0 <= x(63)#63 <= 1
 0 <= x(64)#64 <= 1
 0 <= x(65)#65 <= 1
 0 <= x(66)#66 <= 1
 0 <= x(67)#67 <= 1
 0 <= x(68)#68 <= 1
 0 <= x(69)#69 <= 1
 0 <= x(70)#70 <= 1
 0 <= x(71)#71 <= 1
 0 <= x(72)#72 <= 1
 0 <= x(73)#73 <= 1
 0 <= x(74)#74 <= 1
 0 <= x(75)#75 <= 1
 0 <= x(76)#76 <= 1
 0 <= x(77)#77 <= 1
 0 <= x(78)#78 <= 1
 0 <= x(79)#79 <= 1
 0 <= x(80)#80 <= 1
 0 <= x(81)#81 <= 1
 0 <= x(82)#82 <= 1
 0 <= x(83)#83 <= 1
 0 <= x(84)#84 <= 1
 0 <= x(85)#85 <= 1
 0 <= x(86)#86 <= 1
 0 <= x(87)#87 <= 1
 0 <= x(88)#88 <= 1
 0 <= x(89)#89 <= 1
 0 <= x(90)#90 <= 1
 0 <= x(91)#91 <= 1
 0 <= x(92)#92 <= 1
 0 <= x(93)#93 <= 1
 0 <= x(94)#94 <= 1
 0 <= x(95)#95 <= 1
 0 <= x(96)#96 <= 1
 0 <= x(97)#97 <= 1
 0 <= x(98)#98 <= 1
 0 <= x(99)#99 <= 1
Generals
 x(0)#0  x(1)#1  x(2)#2  x(3)#3  x(4)#4  x(5)#5  x(6)#6  x(7)#7  x(8)#8 
 x(9)#9  x(10)#10  x(11)#11  x(12)#12  x(13)#13  x(14)#14  x(15)#15  x(16)#16 
 x(17)#17  x(18)#18  x(19)#19  x(20)#20  x(21)#21  x(22)#22  x(23)#23 
 x(24)#24  x(25)#25  x(26)#26  x(27)#27  x(28)#28  x(29)#29  x(30)#30 
 x(31)#31  x(32)#32  x(33)#33  x(34)#34  x(35)#35  x(36)#36  x(37)#37 
 x(38)#38  x(39)#39  x(40)#40  x(41)#41  x(42)#42  x(43)#43  x(44)#44 
 x(45)#45  x(46)#46  x(47)#47  x(48)#48  x(49)#49  x(50)#50  x(51)#51 
 x(52)#52  x(53)#53  x(54)#54  x(55)#55  x(56)#56  x(57)#57  x(58)#58 
 x(59)#59  x(60)#60  x(61)#61  x(62)#62  x(63)#63  x(64)#64  x(65)#65 
 x(66)#66  x(67)#67  x(68)#68  x(69)#69  x(70)#70  x(71)#71  x(72)#72 
 x(73)#73  x(74)#74  x(75)#75  x(76)#76  x(77)#77  x(78)#78  x(79)#79 
 x(80)#80  x(81)#81  x(82)#82  x(83)#83  x(84)#84  x(85)#85  x(86)#86 
 x(87)#87  x(88)#88  x(89)#89  x(90)#90  x(91)#91  x(92)#92  x(93)#93 
 x(94)#94  x(95)#95  x(96)#96  x(97)#97  x(98)#98  x(99)#99 
End
